
Gurobi 8.1.1 (linux64, Python) logging started Sat Jun  1 14:39:12 2019

Academic license - for non-commercial use only

Gurobi 8.1.1 (linux64, Python) logging started Sat Jun  1 14:52:48 2019

Academic license - for non-commercial use only

Gurobi 8.1.1 (linux64, Python) logging started Sat Jun  1 14:53:17 2019

Academic license - for non-commercial use only

Gurobi 8.1.1 (linux64, Python) logging started Sat Jun  1 14:54:08 2019

Academic license - for non-commercial use only

Gurobi 8.1.1 (linux64, Python) logging started Sat Jun  1 14:54:22 2019

Academic license - for non-commercial use only

Gurobi 8.1.1 (linux64, Python) logging started Sat Jun  1 15:05:26 2019

Academic license - for non-commercial use only

Gurobi 8.1.1 (linux64, Python) logging started Sat Jun  1 15:05:48 2019

Academic license - for non-commercial use only

Gurobi 8.1.1 (linux64, Python) logging started Sat Jun  1 15:05:56 2019

Academic license - for non-commercial use only

Gurobi 8.1.1 (linux64, Python) logging started Sat Jun  1 15:49:18 2019

Academic license - for non-commercial use only
